letting n_hints be 29

letting grid be [
[ 1, 1, 2,  2, 2, 3,  3, 3, 4],
[ 1, 1, 1,  2, 5, 6,  6, 6, 4],
[ 7, 7, 7,  5, 5, 8,  9, 9,10],

[11,11,12, 13, 5, 8, 14, 9,15],
[11,12,12, 13, 8, 8, 14,14,15],
[16,17,18, 13,13,19, 20,20,20],

[16,17,18, 21,21,19, 22,22,23],
[24,24,18, 25,25,26, 27,27,23],
[28,28,29, 29,25,26, 27,23,23] 
]

letting hints be [31,14,11,11,24, 17,13,15,11,8, 15,18,20,23,10, 7,8,18,15,11, 5,15,16,5,14, 11,14,17,8]